200
100
80
80
79
78
78
78
77
77
76
76
76
75
75
75
74
73
73
73
73
73
72
72
72
72
71
71
71
71
70
70
70
70
69
68
68
68
68
67
67
67
67
67
67
66
66
66
65
65
64
63
62
62
60
60
60
60
59
59
58
58
57
57
56
56
56
56
56
55
55
55
54
54
53
53
53
53
52
50
50
50
49
49
49
48
48
48
48
47
47
45
45
45
45
44
44
43
43
42
42
42
42
41
41
40
39
39
39
39
39
38
38
38
38
38
38
37
37
37
36
35
33
33
32
32
32
31
31
30
30
30
30
29
29
29
28
28
28
28
28
28
27
27
27
26
26
25
25
25
25
24
23
23
23
23
22
22
22
22
22
22
21
21
21
21
21
20
19
19
19
19
19
18
18
18
17
17
17
17
17
16
16
16
16
15
15
15
15
14
14
13
13
11
11
11
11
10
10
10
10
10
